11	15	18	9	1	12	19	4	1	19
11	14	9	6	14	9	8	4	13	4
9	13	16	16	8	20	6	10	8	12
2	8	13	4	10	4	6	12	9	20
3	10	14	3	8	11	16	2	18	19
17	13	6	8	16	14	13	10	2	19
10	7	8	12	3	16	2	17	3	15
18	16	2	10	11	5	15	15	18	19
1	6	20	11	2	14	19	16	18	15
20	9	18	9	8	17	3	18	8	1
9	20	14	4	11	5	6	18	17	8
4	20	1	16	2	4	2	4	14	13
6	3	1	6	9	6	11	16	19	4
17	5	5	18	16	8	14	20	15	6
9	10	3	15	12	1	10	15	3	5
8	1	9	11	1	5	19	7	10	20
15	20	15	3	1	9	3	13	6	9
17	18	14	16	11	18	15	14	9	4
10	14	15	2	2	13	6	4	3	19
